\ENCODING=ISO-8859-1
\Problem name: ilog.cplex

Minimize
 obj1: 109206 x1 + 94149 x2 + 103577 x3 + 97811 x4 + 109543 x5 + 105841 x6
       + 107212 x7 + 109642 x8 + 105921 x9 + 95766 x10 + 92136 x11 + 102037 x12
       + 93501 x13 + 107313 x14 + 100939 x15 + 99780 x16 + 109536 x17
       + 104974 x18 + 99851 x19 + 103971 x20 + 109244 x21 + 98633 x22
       + 92543 x23 + 91430 x24 + 93446 x25 + 97119 x26 + 92968 x27 + 100091 x28
       + 105020 x29 + 99956 x30 + 98116 x31 + 97280 x32 + 97785 x33 + 97389 x34
       + 108466 x35 + 101761 x36 + 93663 x37 + 100466 x38 + 106434 x39
       + 104924 x40 + 101785 x41 + 105347 x42 + 101268 x43 + 91705 x44
       + 96659 x45 + 108984 x46 + 102578 x47 + 97618 x48 + 101613 x49
       + 96939 x50 + 98333 x51 + 104585 x52 + 96162 x53 + 104371 x54
       + 107801 x55 + 92222 x56 + 107495 x57 + 103953 x58 + 109794 x59
       + 97590 x60 + 109483 x61 + 93982 x62 + 106698 x63 + 109120 x64
       + 98262 x65 + 98120 x66 + 108978 x67 + 94891 x68 + 106502 x69
       + 109645 x70 + 92910 x71 + 96568 x72 + 90269 x73 + 109726 x74
       + 109447 x75 + 100406 x76 + 106851 x77 + 102584 x78 + 96412 x79
       + 94555 x80 + 90240 x81 + 108600 x82 + 105399 x83 + 91979 x84
       + 93041 x85 + 101772 x86 + 104665 x87 + 103900 x88 + 106252 x89
       + 108890 x90 + 99772 x91 + 109966 x92 + 91629 x93 + 104351 x94
       + 104842 x95 + 108232 x96 + 105323 x97 + 96781 x98 + 99055 x99
       + 100578 x100 + 97303 x101 + 105756 x102 + 105823 x103 + 91178 x104
       + 108426 x105 + 108255 x106 + 95035 x107 + 105313 x108 + 108619 x109
       + 104314 x110 + 108084 x111 + 107776 x112 + 97708 x113 + 102998 x114
       + 106724 x115 + 106318 x116 + 109316 x117 + 103315 x118 + 94327 x119
       + 97168 x120 + 106517 x121 + 100254 x122 + 103877 x123 + 104463 x124
       + 105244 x125 + 107713 x126 + 101418 x127 + 99381 x128 + 103700 x129
       + 100436 x130 + 94060 x131 + 107324 x132 + 109221 x133 + 107256 x134
       + 90161 x135 + 99547 x136 + 102730 x137 + 98744 x138 + 103348 x139
       + 104197 x140 + 105394 x141 + 103780 x142 + 101765 x143 + 100990 x144
       + 92050 x145 + 101627 x146 + 99254 x147 + 103601 x148 + 91666 x149
       + 108742 x150 + 92893 x151 + 103966 x152 + 96845 x153 + 107154 x154
       + 101044 x155 + 100322 x156 + 104047 x157 + 108090 x158 + 102032 x159
       + 98604 x160 + 101487 x161 + 96607 x162 + 100252 x163 + 99905 x164
       + 98454 x165 + 94182 x166 + 92336 x167 + 104197 x168 + 103521 x169
       + 108765 x170 + 95265 x171 + 92238 x172 + 95044 x173 + 106499 x174
       + 91392 x175 + 90082 x176 + 102108 x177 + 90586 x178 + 93526 x179
       + 104032 x180 + 96913 x181 + 91456 x182 + 91535 x183 + 105430 x184
       + 105687 x185 + 104314 x186 + 100853 x187 + 101918 x188 + 101944 x189
       + 97636 x190 + 92818 x191 + 94602 x192 + 93296 x193 + 99332 x194
       + 106956 x195 + 109040 x196 + 90980 x197 + 106087 x198 + 106105 x199
       + 102032 x200 + 105912 x201 + 106315 x202 + 92697 x203 + 98837 x204
       + 97359 x205 + 109705 x206 + 101695 x207 + 92430 x208 + 108734 x209
       + 106837 x210 + 107123 x211 + 91079 x212 + 96480 x213 + 105873 x214
       + 91233 x215 + 96684 x216 + 103377 x217 + 91156 x218 + 97710 x219
       + 94392 x220 + 99257 x221 + 91134 x222 + 94903 x223 + 91637 x224
       + 98229 x225 + 105032 x226 + 96870 x227 + 91139 x228 + 109569 x229
       + 97464 x230 + 99799 x231 + 94085 x232 + 104123 x233 + 94442 x234
       + 106352 x235 + 96789 x236 + 108404 x237 + 109050 x238 + 101151 x239
       + 91814 x240 + 94528 x241 + 90615 x242 + 106879 x243 + 92792 x244
       + 95707 x245 + 107238 x246 + 92373 x247 + 91171 x248 + 104230 x249
       - 85947 x250 + 197518 x251 + 209720 x252 + 210116 x253 + 197232 x254
       + 191606 x255 + 211255 x256 + 195958 x257 + 215509 x258 + 190799 x259
       + 180033 x260 + 206815 x261 + 216798 x262 + 196698 x263 + 203919 x264
       + 187813 x265 + 198160 x266 + 189900 x267 + 214110 x268 + 194307 x269
       + 196569 x270 + 206241 x271 + 186613 x272 + 210187 x273 + 215194 x274
       + 206669 x275 + 191240 x276 + 213343 x277 + 201256 x278 + 194596 x279
       + 208586 x280 + 202471 x281 + 213612 x282 + 211209 x283 + 199266 x284
       + 192894 x285 + 183869 x286 + 219530 x287 + 207194 x288 + 186298 x289
       + 214269 x290 + 192167 x291 + 190008 x292 + 180247 x293 + 208718 x294
       + 185504 x295 + 194759 x296 + 208087 x297 + 200279 x298 + 214712 x299
       + 156147 x300
Subject To
 c1:   x1 - x6 + x8 + x12 - x19 - x21 + x33 + x37 - x38 + x46 - x48  = 0
 c2:   x51 - x56 + x58 + x62 - x69 - x71 + x83 + x87 - x88 + x96 - x98  = 0
 c3:   x101 - x106 + x108 + x112 - x119 - x121 + x133 + x137 - x138 + x146
       - x148  = 1
 c4:   x151 - x156 + x158 + x162 - x169 - x171 + x183 + x187 - x188 + x196
       - x198  = 0
 c5:   x201 - x206 + x208 + x212 - x219 - x221 + x233 + x237 - x238 + x246
       - x248  = 0
 c6:   x22 + x26 - x27 - x28 - x29 - x39 - x42 - x43 + x47  = 0
 c7:   x72 + x76 - x77 - x78 - x79 - x89 - x92 - x93 + x97  = 0
 c8:   x122 + x126 - x127 - x128 - x129 - x139 - x142 - x143 + x147  = 0
 c9:   x172 + x176 - x177 - x178 - x179 - x189 - x192 - x193 + x197  = 0
 c10:  x222 + x226 - x227 - x228 - x229 - x239 - x242 - x243 + x247  = 0
 c11:  - x1 + x2 - x4 + x6 + x14 + x15 - x18 + x32 + x40 + x45  = 0
 c12:  - x51 + x52 - x54 + x56 + x64 + x65 - x68 + x82 + x90 + x95  = 1
 c13:  - x101 + x102 - x104 + x106 + x114 + x115 - x118 + x132 + x140 + x145
        = -1
 c14:  - x151 + x152 - x154 + x156 + x164 + x165 - x168 + x182 + x190 + x195
        = 0
 c15:  - x201 + x202 - x204 + x206 + x214 + x215 - x218 + x232 + x240 + x245
        = 1
 c16:  - x3 - x12 + x20 + x23 + x49 - x50  = 1
 c17:  - x53 - x62 + x70 + x73 + x99 - x100  = 0
 c18:  - x103 - x112 + x120 + x123 + x149 - x150  = 0
 c19:  - x153 - x162 + x170 + x173 + x199 - x200  = 0
 c20:  - x203 - x212 + x220 + x223 + x249 - x250  = -1
 c21:  - x7 + x11 + x13 - x15 - x17 - x23 - x24 + x31 - x33 + x42  = 0
 c22:  - x57 + x61 + x63 - x65 - x67 - x73 - x74 + x81 - x83 + x92  = -1
 c23:  - x107 + x111 + x113 - x115 - x117 - x123 - x124 + x131 - x133 + x142
        = 0
 c24:  - x157 + x161 + x163 - x165 - x167 - x173 - x174 + x181 - x183 + x192
        = 0
 c25:  - x207 + x211 + x213 - x215 - x217 - x223 - x224 + x231 - x233 + x242
        = 0
 c26:  - x8 + x10 - x14 - x16 - x20 + x25 - x26 - x31 + x35 - x36 + x38 + x41
       + x43  = -1
 c27:  - x58 + x60 - x64 - x66 - x70 + x75 - x76 - x81 + x85 - x86 + x88 + x91
       + x93  = 0
 c28:  - x108 + x110 - x114 - x116 - x120 + x125 - x126 - x131 + x135 - x136
       + x138 + x141 + x143  = 0
 c29:  - x158 + x160 - x164 - x166 - x170 + x175 - x176 - x181 + x185 - x186
       + x188 + x191 + x193  = 0
 c30:  - x208 + x210 - x214 - x216 - x220 + x225 - x226 - x231 + x235 - x236
       + x238 + x241 + x243  = 0
 c31:  x5 + x7 - x9 + x19 + x29 - x34 + x36 - x37 - x41 + x44 - x45 - x47  = 0
 c32:  x55 + x57 - x59 + x69 + x79 - x84 + x86 - x87 - x91 + x94 - x95 - x97
        = 0
 c33:  x105 + x107 - x109 + x119 + x129 - x134 + x136 - x137 - x141 + x144
       - x145 - x147  = 0
 c34:  x155 + x157 - x159 + x169 + x179 - x184 + x186 - x187 - x191 + x194
       - x195 - x197  = 0
 c35:  x205 + x207 - x209 + x219 + x229 - x234 + x236 - x237 - x241 + x244
       - x245 - x247  = 0
 c36:  - x2 - x13 + x16 + x17 - x22 - x25 + x30 + x34 + x39 - x49 + x50  = 0
 c37:  - x52 - x63 + x66 + x67 - x72 - x75 + x80 + x84 + x89 - x99 + x100  = 0
 c38:  - x102 - x113 + x116 + x117 - x122 - x125 + x130 + x134 + x139 - x149
       + x150  = 0
 c39:  - x152 - x163 + x166 + x167 - x172 - x175 + x180 + x184 + x189 - x199
       + x200  = 1
 c40:  - x202 - x213 + x216 + x217 - x222 - x225 + x230 + x234 + x239 - x249
       + x250  = 0
 c41:  x3 + x4 - x10 - x11 + x27 - x32 - x44 - x46 + x48  = 0
 c42:  x53 + x54 - x60 - x61 + x77 - x82 - x94 - x96 + x98  = 0
 c43:  x103 + x104 - x110 - x111 + x127 - x132 - x144 - x146 + x148  = 0
 c44:  x153 + x154 - x160 - x161 + x177 - x182 - x194 - x196 + x198  = -1
 c45:  x203 + x204 - x210 - x211 + x227 - x232 - x244 - x246 + x248  = 0
 c46:  - x5 + x9 + x18 + x21 + x24 + x28 - x30 - x35 - x40  = 0
 c47:  - x55 + x59 + x68 + x71 + x74 + x78 - x80 - x85 - x90  = 0
 c48:  - x105 + x109 + x118 + x121 + x124 + x128 - x130 - x135 - x140  = 0
 c49:  - x155 + x159 + x168 + x171 + x174 + x178 - x180 - x185 - x190  = 0
 c50:  - x205 + x209 + x218 + x221 + x224 + x228 - x230 - x235 - x240  = 0
 c51:  4 x1 + 4 x51 + 4 x101 + 4 x151 + 4 x201 - 2 x251 <= 0
 c52:  4 x2 + 4 x52 + 4 x102 + 4 x152 + 4 x202 - 2 x252 <= 0
 c53:  4 x3 + 4 x53 + 4 x103 + 4 x153 + 4 x203 - 2 x253 <= 0
 c54:  4 x4 + 4 x54 + 4 x104 + 4 x154 + 4 x204 - 2 x254 <= 0
 c55:  4 x5 + 4 x55 + 4 x105 + 4 x155 + 4 x205 - 2 x255 <= 0
 c56:  4 x6 + 4 x56 + 4 x106 + 4 x156 + 4 x206 - 2 x256 <= 0
 c57:  4 x7 + 4 x57 + 4 x107 + 4 x157 + 4 x207 - 2 x257 <= 0
 c58:  4 x8 + 4 x58 + 4 x108 + 4 x158 + 4 x208 - 2 x258 <= 0
 c59:  4 x9 + 4 x59 + 4 x109 + 4 x159 + 4 x209 - 2 x259 <= 0
 c60:  4 x10 + 4 x60 + 4 x110 + 4 x160 + 4 x210 - 2 x260 <= 0
 c61:  4 x11 + 4 x61 + 4 x111 + 4 x161 + 4 x211 - 2 x261 <= 0
 c62:  4 x12 + 4 x62 + 4 x112 + 4 x162 + 4 x212 - 2 x262 <= 0
 c63:  4 x13 + 4 x63 + 4 x113 + 4 x163 + 4 x213 - 2 x263 <= 0
 c64:  4 x14 + 4 x64 + 4 x114 + 4 x164 + 4 x214 - 2 x264 <= 0
 c65:  4 x15 + 4 x65 + 4 x115 + 4 x165 + 4 x215 - 2 x265 <= 0
 c66:  4 x16 + 4 x66 + 4 x116 + 4 x166 + 4 x216 - 2 x266 <= 0
 c67:  4 x17 + 4 x67 + 4 x117 + 4 x167 + 4 x217 - 2 x267 <= 0
 c68:  4 x18 + 4 x68 + 4 x118 + 4 x168 + 4 x218 - 2 x268 <= 0
 c69:  4 x19 + 4 x69 + 4 x119 + 4 x169 + 4 x219 - 2 x269 <= 0
 c70:  4 x20 + 4 x70 + 4 x120 + 4 x170 + 4 x220 - 2 x270 <= 0
 c71:  4 x21 + 4 x71 + 4 x121 + 4 x171 + 4 x221 - 2 x271 <= 0
 c72:  4 x22 + 4 x72 + 4 x122 + 4 x172 + 4 x222 - 2 x272 <= 0
 c73:  4 x23 + 4 x73 + 4 x123 + 4 x173 + 4 x223 - 2 x273 <= 0
 c74:  4 x24 + 4 x74 + 4 x124 + 4 x174 + 4 x224 - 2 x274 <= 0
 c75:  4 x25 + 4 x75 + 4 x125 + 4 x175 + 4 x225 - 2 x275 <= 0
 c76:  4 x26 + 4 x76 + 4 x126 + 4 x176 + 4 x226 - 2 x276 <= 0
 c77:  4 x27 + 4 x77 + 4 x127 + 4 x177 + 4 x227 - 2 x277 <= 0
 c78:  4 x28 + 4 x78 + 4 x128 + 4 x178 + 4 x228 - 2 x278 <= 0
 c79:  4 x29 + 4 x79 + 4 x129 + 4 x179 + 4 x229 - 2 x279 <= 0
 c80:  4 x30 + 4 x80 + 4 x130 + 4 x180 + 4 x230 - 2 x280 <= 0
 c81:  4 x31 + 4 x81 + 4 x131 + 4 x181 + 4 x231 - 2 x281 <= 0
 c82:  4 x32 + 4 x82 + 4 x132 + 4 x182 + 4 x232 - 2 x282 <= 0
 c83:  4 x33 + 4 x83 + 4 x133 + 4 x183 + 4 x233 - 2 x283 <= 0
 c84:  4 x34 + 4 x84 + 4 x134 + 4 x184 + 4 x234 - 2 x284 <= 0
 c85:  4 x35 + 4 x85 + 4 x135 + 4 x185 + 4 x235 - 2 x285 <= 0
 c86:  4 x36 + 4 x86 + 4 x136 + 4 x186 + 4 x236 - 2 x286 <= 0
 c87:  4 x37 + 4 x87 + 4 x137 + 4 x187 + 4 x237 - 2 x287 <= 0
 c88:  4 x38 + 4 x88 + 4 x138 + 4 x188 + 4 x238 - 2 x288 <= 0
 c89:  4 x39 + 4 x89 + 4 x139 + 4 x189 + 4 x239 - 2 x289 <= 0
 c90:  4 x40 + 4 x90 + 4 x140 + 4 x190 + 4 x240 - 2 x290 <= 0
 c91:  4 x41 + 4 x91 + 4 x141 + 4 x191 + 4 x241 - 2 x291 <= 0
 c92:  4 x42 + 4 x92 + 4 x142 + 4 x192 + 4 x242 - 2 x292 <= 0
 c93:  4 x43 + 4 x93 + 4 x143 + 4 x193 + 4 x243 - 2 x293 <= 0
 c94:  4 x44 + 4 x94 + 4 x144 + 4 x194 + 4 x244 - 2 x294 <= 0
 c95:  4 x45 + 4 x95 + 4 x145 + 4 x195 + 4 x245 - 2 x295 <= 0
 c96:  4 x46 + 4 x96 + 4 x146 + 4 x196 + 4 x246 - 2 x296 <= 0
 c97:  4 x47 + 4 x97 + 4 x147 + 4 x197 + 4 x247 - 2 x297 <= 0
 c98:  4 x48 + 4 x98 + 4 x148 + 4 x198 + 4 x248 - 2 x298 <= 0
 c99:  4 x49 + 4 x99 + 4 x149 + 4 x199 + 4 x249 - 2 x299 <= 0
 c100: 4 x50 + 4 x100 + 4 x150 + 4 x200 + 4 x250 - 2 x300 <= 0
Bounds
 0 <= x1 <= 1
 0 <= x2 <= 1
 0 <= x3 <= 1
 0 <= x4 <= 1
 0 <= x5 <= 1
 0 <= x6 <= 1
 0 <= x7 <= 1
 0 <= x8 <= 1
 0 <= x9 <= 1
 0 <= x10 <= 1
 0 <= x11 <= 1
 0 <= x12 <= 1
 0 <= x13 <= 1
 0 <= x14 <= 1
 0 <= x15 <= 1
 0 <= x16 <= 1
 0 <= x17 <= 1
 0 <= x18 <= 1
 0 <= x19 <= 1
 0 <= x20 <= 1
 0 <= x21 <= 1
 0 <= x22 <= 1
 0 <= x23 <= 1
 0 <= x24 <= 1
 0 <= x25 <= 1
 0 <= x26 <= 1
 0 <= x27 <= 1
 0 <= x28 <= 1
 0 <= x29 <= 1
 0 <= x30 <= 1
 0 <= x31 <= 1
 0 <= x32 <= 1
 0 <= x33 <= 1
 0 <= x34 <= 1
 0 <= x35 <= 1
 0 <= x36 <= 1
 0 <= x37 <= 1
 0 <= x38 <= 1
 0 <= x39 <= 1
 0 <= x40 <= 1
 0 <= x41 <= 1
 0 <= x42 <= 1
 0 <= x43 <= 1
 0 <= x44 <= 1
 0 <= x45 <= 1
 0 <= x46 <= 1
 0 <= x47 <= 1
 0 <= x48 <= 1
 0 <= x49 <= 1
 0 <= x50 <= 1
 0 <= x51 <= 1
 0 <= x52 <= 1
 0 <= x53 <= 1
 0 <= x54 <= 1
 0 <= x55 <= 1
 0 <= x56 <= 1
 0 <= x57 <= 1
 0 <= x58 <= 1
 0 <= x59 <= 1
 0 <= x60 <= 1
 0 <= x61 <= 1
 0 <= x62 <= 1
 0 <= x63 <= 1
 0 <= x64 <= 1
 0 <= x65 <= 1
 0 <= x66 <= 1
 0 <= x67 <= 1
 0 <= x68 <= 1
 0 <= x69 <= 1
 0 <= x70 <= 1
 0 <= x71 <= 1
 0 <= x72 <= 1
 0 <= x73 <= 1
 0 <= x74 <= 1
 0 <= x75 <= 1
 0 <= x76 <= 1
 0 <= x77 <= 1
 0 <= x78 <= 1
 0 <= x79 <= 1
 0 <= x80 <= 1
 0 <= x81 <= 1
 0 <= x82 <= 1
 0 <= x83 <= 1
 0 <= x84 <= 1
 0 <= x85 <= 1
 0 <= x86 <= 1
 0 <= x87 <= 1
 0 <= x88 <= 1
 0 <= x89 <= 1
 0 <= x90 <= 1
 0 <= x91 <= 1
 0 <= x92 <= 1
 0 <= x93 <= 1
 0 <= x94 <= 1
 0 <= x95 <= 1
 0 <= x96 <= 1
 0 <= x97 <= 1
 0 <= x98 <= 1
 0 <= x99 <= 1
 0 <= x100 <= 1
 0 <= x101 <= 1
 0 <= x102 <= 1
 0 <= x103 <= 1
 0 <= x104 <= 1
 0 <= x105 <= 1
 0 <= x106 <= 1
 0 <= x107 <= 1
 0 <= x108 <= 1
 0 <= x109 <= 1
 0 <= x110 <= 1
 0 <= x111 <= 1
 0 <= x112 <= 1
 0 <= x113 <= 1
 0 <= x114 <= 1
 0 <= x115 <= 1
 0 <= x116 <= 1
 0 <= x117 <= 1
 0 <= x118 <= 1
 0 <= x119 <= 1
 0 <= x120 <= 1
 0 <= x121 <= 1
 0 <= x122 <= 1
 0 <= x123 <= 1
 0 <= x124 <= 1
 0 <= x125 <= 1
 0 <= x126 <= 1
 0 <= x127 <= 1
 0 <= x128 <= 1
 0 <= x129 <= 1
 0 <= x130 <= 1
 0 <= x131 <= 1
 0 <= x132 <= 1
 0 <= x133 <= 1
 0 <= x134 <= 1
 0 <= x135 <= 1
 0 <= x136 <= 1
 0 <= x137 <= 1
 0 <= x138 <= 1
 0 <= x139 <= 1
 0 <= x140 <= 1
 0 <= x141 <= 1
 0 <= x142 <= 1
 0 <= x143 <= 1
 0 <= x144 <= 1
 0 <= x145 <= 1
 0 <= x146 <= 1
 0 <= x147 <= 1
 0 <= x148 <= 1
 0 <= x149 <= 1
 0 <= x150 <= 1
 0 <= x151 <= 1
 0 <= x152 <= 1
 0 <= x153 <= 1
 0 <= x154 <= 1
 0 <= x155 <= 1
 0 <= x156 <= 1
 0 <= x157 <= 1
 0 <= x158 <= 1
 0 <= x159 <= 1
 0 <= x160 <= 1
 0 <= x161 <= 1
 0 <= x162 <= 1
 0 <= x163 <= 1
 0 <= x164 <= 1
 0 <= x165 <= 1
 0 <= x166 <= 1
 0 <= x167 <= 1
 0 <= x168 <= 1
 0 <= x169 <= 1
 0 <= x170 <= 1
 0 <= x171 <= 1
 0 <= x172 <= 1
 0 <= x173 <= 1
 0 <= x174 <= 1
 0 <= x175 <= 1
 0 <= x176 <= 1
 0 <= x177 <= 1
 0 <= x178 <= 1
 0 <= x179 <= 1
 0 <= x180 <= 1
 0 <= x181 <= 1
 0 <= x182 <= 1
 0 <= x183 <= 1
 0 <= x184 <= 1
 0 <= x185 <= 1
 0 <= x186 <= 1
 0 <= x187 <= 1
 0 <= x188 <= 1
 0 <= x189 <= 1
 0 <= x190 <= 1
 0 <= x191 <= 1
 0 <= x192 <= 1
 0 <= x193 <= 1
 0 <= x194 <= 1
 0 <= x195 <= 1
 0 <= x196 <= 1
 0 <= x197 <= 1
 0 <= x198 <= 1
 0 <= x199 <= 1
 0 <= x200 <= 1
 0 <= x201 <= 1
 0 <= x202 <= 1
 0 <= x203 <= 1
 0 <= x204 <= 1
 0 <= x205 <= 1
 0 <= x206 <= 1
 0 <= x207 <= 1
 0 <= x208 <= 1
 0 <= x209 <= 1
 0 <= x210 <= 1
 0 <= x211 <= 1
 0 <= x212 <= 1
 0 <= x213 <= 1
 0 <= x214 <= 1
 0 <= x215 <= 1
 0 <= x216 <= 1
 0 <= x217 <= 1
 0 <= x218 <= 1
 0 <= x219 <= 1
 0 <= x220 <= 1
 0 <= x221 <= 1
 0 <= x222 <= 1
 0 <= x223 <= 1
 0 <= x224 <= 1
 0 <= x225 <= 1
 0 <= x226 <= 1
 0 <= x227 <= 1
 0 <= x228 <= 1
 0 <= x229 <= 1
 0 <= x230 <= 1
 0 <= x231 <= 1
 0 <= x232 <= 1
 0 <= x233 <= 1
 0 <= x234 <= 1
 0 <= x235 <= 1
 0 <= x236 <= 1
 0 <= x237 <= 1
 0 <= x238 <= 1
 0 <= x239 <= 1
 0 <= x240 <= 1
 0 <= x241 <= 1
 0 <= x242 <= 1
 0 <= x243 <= 1
 0 <= x244 <= 1
 0 <= x245 <= 1
 0 <= x246 <= 1
 0 <= x247 <= 1
 0 <= x248 <= 1
 0 <= x249 <= 1
 0 <= x250 <= 1
 0 <= x251 <= 1
 0 <= x252 <= 1
 0 <= x253 <= 1
 0 <= x254 <= 1
 0 <= x255 <= 1
 0 <= x256 <= 1
 0 <= x257 <= 1
 0 <= x258 <= 1
 0 <= x259 <= 1
 0 <= x260 <= 1
 0 <= x261 <= 1
 0 <= x262 <= 1
 0 <= x263 <= 1
 0 <= x264 <= 1
 0 <= x265 <= 1
 0 <= x266 <= 1
 0 <= x267 <= 1
 0 <= x268 <= 1
 0 <= x269 <= 1
 0 <= x270 <= 1
 0 <= x271 <= 1
 0 <= x272 <= 1
 0 <= x273 <= 1
 0 <= x274 <= 1
 0 <= x275 <= 1
 0 <= x276 <= 1
 0 <= x277 <= 1
 0 <= x278 <= 1
 0 <= x279 <= 1
 0 <= x280 <= 1
 0 <= x281 <= 1
 0 <= x282 <= 1
 0 <= x283 <= 1
 0 <= x284 <= 1
 0 <= x285 <= 1
 0 <= x286 <= 1
 0 <= x287 <= 1
 0 <= x288 <= 1
 0 <= x289 <= 1
 0 <= x290 <= 1
 0 <= x291 <= 1
 0 <= x292 <= 1
 0 <= x293 <= 1
 0 <= x294 <= 1
 0 <= x295 <= 1
 0 <= x296 <= 1
 0 <= x297 <= 1
 0 <= x298 <= 1
 0 <= x299 <= 1
 0 <= x300 <= 1
Binaries
 x251  x252  x253  x254  x255  x256  x257  x258  x259  x260  x261  x262  x263 
 x264  x265  x266  x267  x268  x269  x270  x271  x272  x273  x274  x275  x276 
 x277  x278  x279  x280  x281  x282  x283  x284  x285  x286  x287  x288  x289 
 x290  x291  x292  x293  x294  x295  x296  x297  x298  x299  x300 
End
